17 965
525 7 482 7 362 7 201 9 13 11 819 18
525 7 482 7 365 7 212 9 29 11 823 18
525 7 445 7 264 7 63 9 889 11 721 18
525 7 445 7 264 7 63 9 889 11 721 18
525 7 482 7 367 7 213 9 32 11 824 18
525 7 482 7 367 7 213 9 32 11 824 18
525 7 482 7 367 7 213 9 32 11 824 18
525 7 482 7 367 7 213 9 32 11 824 18
525 7 484 7 368 7 123 9 857 11 631 18
535 8 492 8 398 9 279 10 184 14 58 26 897 50
525 7 445 7 357 7 195 9 48 11 872 15 714 22
525 7 445 7 357 7 195 9 48 11 872 15 714 22
525 7 445 7 263 7 62 9 888 11 718 18
525 7 445 7 264 7 63 9 889 11 721 18
525 7 445 7 264 7 63 9 889 11 721 18
525 7 479 7 355 7 106 9 927 13
525 7 482 7 365 7 115 9 943 13
